sat
(
(define-fun H () String "")
(define-fun G () String "")
(define-fun E () String "aaba")
(define-fun F () String "")
(define-fun J () String "")
(define-fun N () String "")
(define-fun L () String "baa")
)
